c nIsolatedPIs 0
c maxPI 32
p cnf 182 451
c gate 33 -8 -24 0
-8 -33 0
-24 -33 0
8 24 33 0
c gate 34 8 24 0
8 -34 0
24 -34 0
-8 -24 34 0
c gate 35 -33 -34 0
-33 -35 0
-34 -35 0
33 34 35 0
c gate 36 7 -23 0
7 -36 0
-23 -36 0
-7 23 36 0
c gate 37 2 -18 0
2 -37 0
-18 -37 0
-2 18 37 0
c gate 38 -1 17 0
-1 -38 0
17 -38 0
1 -17 38 0
c gate 39 -37 38 0
-37 -39 0
38 -39 0
37 -38 39 0
c gate 40 -3 19 0
-3 -40 0
19 -40 0
3 -19 40 0
c gate 41 -2 18 0
-2 -41 0
18 -41 0
2 -18 41 0
c gate 42 -40 -41 0
-40 -42 0
-41 -42 0
40 41 42 0
c gate 43 -39 42 0
-39 -43 0
42 -43 0
39 -42 43 0
c gate 44 4 -20 0
4 -44 0
-20 -44 0
-4 20 44 0
c gate 45 3 -19 0
3 -45 0
-19 -45 0
-3 19 45 0
c gate 46 -44 -45 0
-44 -46 0
-45 -46 0
44 45 46 0
c gate 47 -43 46 0
-43 -47 0
46 -47 0
43 -46 47 0
c gate 48 -5 21 0
-5 -48 0
21 -48 0
5 -21 48 0
c gate 49 -4 20 0
-4 -49 0
20 -49 0
4 -20 49 0
c gate 50 -48 -49 0
-48 -50 0
-49 -50 0
48 49 50 0
c gate 51 -47 50 0
-47 -51 0
50 -51 0
47 -50 51 0
c gate 52 6 -22 0
6 -52 0
-22 -52 0
-6 22 52 0
c gate 53 5 -21 0
5 -53 0
-21 -53 0
-5 21 53 0
c gate 54 -52 -53 0
-52 -54 0
-53 -54 0
52 53 54 0
c gate 55 -51 54 0
-51 -55 0
54 -55 0
51 -54 55 0
c gate 56 -6 22 0
-6 -56 0
22 -56 0
6 -22 56 0
c gate 57 -7 23 0
-7 -57 0
23 -57 0
7 -23 57 0
c gate 58 -56 -57 0
-56 -58 0
-57 -58 0
56 57 58 0
c gate 59 -55 58 0
-55 -59 0
58 -59 0
55 -58 59 0
c gate 60 -36 -59 0
-36 -60 0
-59 -60 0
36 59 60 0
c gate 61 -35 -60 0
-35 -61 0
-60 -61 0
35 60 61 0
c gate 62 -7 -23 0
-7 -62 0
-23 -62 0
7 23 62 0
c gate 63 -33 -62 0
-33 -63 0
-62 -63 0
33 62 63 0
c gate 64 9 25 0
9 -64 0
25 -64 0
-9 -25 64 0
c gate 65 -34 -64 0
-34 -65 0
-64 -65 0
34 64 65 0
c gate 66 -63 65 0
-63 -66 0
65 -66 0
63 -65 66 0
c gate 67 -9 -25 0
-9 -67 0
-25 -67 0
9 25 67 0
c gate 68 -10 26 0
-10 -68 0
26 -68 0
10 -26 68 0
c gate 69 10 -26 0
10 -69 0
-26 -69 0
-10 26 69 0
c gate 70 -68 -69 0
-68 -70 0
-69 -70 0
68 69 70 0
c gate 71 -67 -70 0
-67 -71 0
-70 -71 0
67 70 71 0
c gate 72 -66 71 0
-66 -72 0
71 -72 0
66 -71 72 0
c gate 73 11 27 0
11 -73 0
27 -73 0
-11 -27 73 0
c gate 74 10 26 0
10 -74 0
26 -74 0
-10 -26 74 0
c gate 75 -73 -74 0
-73 -75 0
-74 -75 0
73 74 75 0
c gate 76 -72 75 0
-72 -76 0
75 -76 0
72 -75 76 0
c gate 77 -12 28 0
-12 -77 0
28 -77 0
12 -28 77 0
c gate 78 12 -28 0
12 -78 0
-28 -78 0
-12 28 78 0
c gate 79 -77 -78 0
-77 -79 0
-78 -79 0
77 78 79 0
c gate 80 -11 -27 0
-11 -80 0
-27 -80 0
11 27 80 0
c gate 81 -79 -80 0
-79 -81 0
-80 -81 0
79 80 81 0
c gate 82 -76 81 0
-76 -82 0
81 -82 0
76 -81 82 0
c gate 83 -6 -22 0
-6 -83 0
-22 -83 0
6 22 83 0
c gate 84 6 22 0
6 -84 0
22 -84 0
-6 -22 84 0
c gate 85 -5 -21 0
-5 -85 0
-21 -85 0
5 21 85 0
c gate 86 -4 -20 0
-4 -86 0
-20 -86 0
4 20 86 0
c gate 87 3 19 0
3 -87 0
19 -87 0
-3 -19 87 0
c gate 88 -2 -18 0
-2 -88 0
-18 -88 0
2 18 88 0
c gate 89 1 17 0
1 -89 0
17 -89 0
-1 -17 89 0
c gate 90 2 18 0
2 -90 0
18 -90 0
-2 -18 90 0
c gate 91 -89 -90 0
-89 -91 0
-90 -91 0
89 90 91 0
c gate 92 -40 -45 0
-40 -92 0
-45 -92 0
40 45 92 0
c gate 93 -91 -92 0
-91 -93 0
-92 -93 0
91 92 93 0
c gate 94 -88 93 0
-88 -94 0
93 -94 0
88 -93 94 0
c gate 95 -87 -94 0
-87 -95 0
-94 -95 0
87 94 95 0
c gate 96 -86 -95 0
-86 -96 0
-95 -96 0
86 95 96 0
c gate 97 4 20 0
4 -97 0
20 -97 0
-4 -20 97 0
c gate 98 5 21 0
5 -98 0
21 -98 0
-5 -21 98 0
c gate 99 -97 -98 0
-97 -99 0
-98 -99 0
97 98 99 0
c gate 100 -96 99 0
-96 -100 0
99 -100 0
96 -99 100 0
c gate 101 -85 -100 0
-85 -101 0
-100 -101 0
85 100 101 0
c gate 102 -84 -101 0
-84 -102 0
-101 -102 0
84 101 102 0
c gate 103 -83 -102 0
-83 -103 0
-102 -103 0
83 102 103 0
c gate 104 -36 -57 0
-36 -104 0
-57 -104 0
36 57 104 0
c gate 105 -103 -104 0
-103 -105 0
-104 -105 0
103 104 105 0
c gate 106 -73 -80 0
-73 -106 0
-80 -106 0
73 80 106 0
c gate 107 65 106 0
65 -107 0
106 -107 0
-65 -106 107 0
c gate 108 72 107 0
72 -108 0
107 -108 0
-72 -107 108 0
c gate 109 105 108 0
105 -109 0
108 -109 0
-105 -108 109 0
c gate 110 16 -32 0
16 -110 0
-32 -110 0
-16 32 110 0
c gate 111 -16 32 0
-16 -111 0
32 -111 0
16 -32 111 0
c gate 112 -110 -111 0
-110 -112 0
-111 -112 0
110 111 112 0
c gate 113 13 -29 0
13 -113 0
-29 -113 0
-13 29 113 0
c gate 114 -13 29 0
-13 -114 0
29 -114 0
13 -29 114 0
c gate 115 -113 -114 0
-113 -115 0
-114 -115 0
113 114 115 0
c gate 116 -112 -115 0
-112 -116 0
-115 -116 0
112 115 116 0
c gate 117 -14 30 0
-14 -117 0
30 -117 0
14 -30 117 0
c gate 118 14 -30 0
14 -118 0
-30 -118 0
-14 30 118 0
c gate 119 -117 -118 0
-117 -119 0
-118 -119 0
117 118 119 0
c gate 120 -15 31 0
-15 -120 0
31 -120 0
15 -31 120 0
c gate 121 15 -31 0
15 -121 0
-31 -121 0
-15 31 121 0
c gate 122 -120 -121 0
-120 -122 0
-121 -122 0
120 121 122 0
c gate 123 -119 -122 0
-119 -123 0
-122 -123 0
119 122 123 0
c gate 124 116 123 0
116 -124 0
123 -124 0
-116 -123 124 0
c gate 125 -109 124 0
-109 -125 0
124 -125 0
109 -124 125 0
c gate 126 82 -125 0
82 -126 0
-125 -126 0
-82 125 126 0
c gate 127 -61 126 0
-61 -127 0
126 -127 0
61 -126 127 0
c gate 128 -117 -120 0
-117 -128 0
-120 -128 0
117 120 128 0
c gate 129 -77 -114 0
-77 -129 0
-114 -129 0
77 114 129 0
c gate 130 11 -27 0
11 -130 0
-27 -130 0
-11 27 130 0
c gate 131 -11 27 0
-11 -131 0
27 -131 0
11 -27 131 0
c gate 132 -68 -131 0
-68 -132 0
-131 -132 0
68 131 132 0
c gate 133 -64 -67 0
-64 -133 0
-67 -133 0
64 67 133 0
c gate 134 8 -24 0
8 -134 0
-24 -134 0
-8 24 134 0
c gate 135 -133 134 0
-133 -135 0
134 -135 0
133 -134 135 0
c gate 136 9 -25 0
9 -136 0
-25 -136 0
-9 25 136 0
c gate 137 -69 -136 0
-69 -137 0
-136 -137 0
69 136 137 0
c gate 138 -135 137 0
-135 -138 0
137 -138 0
135 -137 138 0
c gate 139 132 -138 0
132 -139 0
-138 -139 0
-132 138 139 0
c gate 140 -130 -139 0
-130 -140 0
-139 -140 0
130 139 140 0
c gate 141 -78 140 0
-78 -141 0
140 -141 0
78 -140 141 0
c gate 142 129 -141 0
129 -142 0
-141 -142 0
-129 141 142 0
c gate 143 -113 -142 0
-113 -143 0
-142 -143 0
113 142 143 0
c gate 144 -118 143 0
-118 -144 0
143 -144 0
118 -143 144 0
c gate 145 129 132 0
129 -145 0
132 -145 0
-129 -132 145 0
c gate 146 -133 145 0
-133 -146 0
145 -146 0
133 -145 146 0
c gate 147 61 146 0
61 -147 0
146 -147 0
-61 -146 147 0
c gate 148 144 -147 0
144 -148 0
-147 -148 0
-144 147 148 0
c gate 149 128 -148 0
128 -149 0
-148 -149 0
-128 148 149 0
c gate 150 -112 149 0
-112 -150 0
149 -150 0
112 -149 150 0
c gate 151 128 -144 0
128 -151 0
-144 -151 0
-128 144 151 0
c gate 152 -121 -151 0
-121 -152 0
-151 -152 0
121 151 152 0
c gate 153 150 152 0
150 -153 0
152 -153 0
-150 -152 153 0
c gate 154 79 115 0
79 -154 0
115 -154 0
-79 -115 154 0
c gate 155 140 -154 0
140 -155 0
-154 -155 0
-140 154 155 0
c gate 156 119 122 0
119 -156 0
122 -156 0
-119 -122 156 0
c gate 157 129 -156 0
129 -157 0
-156 -157 0
-129 156 157 0
c gate 158 143 157 0
143 -158 0
157 -158 0
-143 -157 158 0
c gate 159 -155 -158 0
-155 -159 0
-158 -159 0
155 158 159 0
c gate 160 132 -159 0
132 -160 0
-159 -160 0
-132 159 160 0
c gate 161 70 -133 0
70 -161 0
-133 -161 0
-70 133 161 0
c gate 162 -106 161 0
-106 -162 0
161 -162 0
106 -161 162 0
c gate 163 -135 -162 0
-135 -163 0
-162 -163 0
135 162 163 0
c gate 164 -160 -163 0
-160 -164 0
-163 -164 0
160 163 164 0
c gate 165 61 -164 0
61 -165 0
-164 -165 0
-61 164 165 0
c gate 166 -153 -165 0
-153 -166 0
-165 -166 0
153 165 166 0
c gate 167 -127 166 0
-127 -167 0
166 -167 0
127 -166 167 0
c gate 168 103 104 0
103 -168 0
104 -168 0
-103 -104 168 0
c gate 169 -105 -168 0
-105 -169 0
-168 -169 0
105 168 169 0
c gate 170 -87 -97 0
-87 -170 0
-97 -170 0
87 97 170 0
c gate 171 -93 170 0
-93 -171 0
170 -171 0
93 -170 171 0
c gate 172 -85 -86 0
-85 -172 0
-86 -172 0
85 86 172 0
c gate 173 -171 172 0
-171 -173 0
172 -173 0
171 -172 173 0
c gate 174 -84 -98 0
-84 -174 0
-98 -174 0
84 98 174 0
c gate 175 -173 174 0
-173 -175 0
174 -175 0
173 -174 175 0
c gate 176 -83 -175 0
-83 -176 0
-175 -176 0
83 175 176 0
c gate 177 -169 -176 0
-169 -177 0
-176 -177 0
169 176 177 0
c gate 178 88 89 0
88 -178 0
89 -178 0
-88 -89 178 0
c gate 179 102 176 0
102 -179 0
176 -179 0
-102 -176 179 0
c gate 180 -178 -179 0
-178 -180 0
-179 -180 0
178 179 180 0
c gate 181 -177 180 0
-177 -181 0
180 -181 0
177 -180 181 0
c gate 182 -167 -181 0
-167 -182 0
-181 -182 0
167 181 182 0
c PO
182 0
